% demand
num_movements = 30;
loading_factor = [1500, 1000, 1600, 1500, 1400, 950, 850, 900, 1750, 1900, 950, 1500, 1000, 1550, 1450, 1400, 1600, 1050, 1500, 1650, 1550, 950, 1100, 1050, 1850, 1800, 1450, 850, 1250, 1250];
pickup_time = [0, 0, 0, 0, 0, 2, 2, 4, 4, 4, 4, 4, 5, 5, 5, 5, 5, 6, 6, 6, 6, 6, 7, 8, 8, 9, 10, 11, 11, 11];
delivery_time = [1, 1, 1, 1, 1, 3, 3, 5, 5, 5, 5, 5, 6, 6, 6, 6, 6, 11, 8, 8, 7, 7, 10, 10, 12, 12, 11, 12, 12, 12];

% transporter definition
total_capacity = 7000;
num_decks = 3;
capacity = [3000, 1000, 3000];

% ways out of decks
num_ways_out = 1;
paths_out = array3d(decks, ways_out, decks, [
% ways out of deck d1
2, 3, 0, 

% ways out of deck d2
3, 0, 0, 

% ways out of deck d3
0, 0, 0,	

]);

